
<<< setup


<<< generate

CPXPARAM_TimeLimit                               2
Tried aggregator 1 time.
MIP Presolve eliminated 19 rows and 19 columns.
Reduced MIP has 441 rows, 781 columns, and 2304 nonzeros.
Reduced MIP has 400 binaries, 381 generals, 0 SOSs, and 0 indicators.
Presolve time = 0,00 sec. (1,39 ticks)
Found incumbent of value 91,631828 after 0,01 sec. (3,73 ticks)
Probing fixed 19 vars, tightened 0 bounds.
Probing time = 0,00 sec. (3,11 ticks)
Cover probing fixed 0 vars, tightened 361 bounds.
Tried aggregator 1 time.
MIP Presolve eliminated 21 rows and 39 columns.
MIP Presolve modified 362 coefficients.
Reduced MIP has 420 rows, 742 columns, and 2206 nonzeros.
Reduced MIP has 381 binaries, 361 generals, 0 SOSs, and 0 indicators.
Presolve time = 0,00 sec. (2,40 ticks)
Probing time = 0,00 sec. (2,68 ticks)
Clique table members: 40.
MIP emphasis: balance optimality and feasibility.
MIP search method: dynamic search.
Parallel mode: deterministic, using up to 4 threads.
Root relaxation solution time = 0,00 sec. (4,48 ticks)

        Nodes                                         Cuts/
   Node  Left     Objective  IInf  Best Integer    Best Bound    ItCnt     Gap

*     0+    0                           91,6318        0,0000           100,00%
      0     0       37,4330    56       91,6318       37,4330      265   59,15%
      0     0       41,6789    60       91,6318      Cuts: 63      424   54,51%
*     0+    0                           44,2527       41,6789             5,82%
      0     0       43,7075    82       44,2527      Cuts: 43      576    1,23%

Repeating presolve.
Tried aggregator 2 times.
MIP Presolve eliminated 281 rows and 580 columns.
MIP Presolve modified 2 coefficients.
Aggregator did 30 substitutions.
Reduced MIP has 109 rows, 132 columns, and 472 nonzeros.
Reduced MIP has 52 binaries, 80 generals, 0 SOSs, and 0 indicators.
Presolve time = 0,00 sec. (0,78 ticks)
Probing fixed 1 vars, tightened 5 bounds.
Probing time = 0,00 sec. (0,10 ticks)
Tried aggregator 1 time.
MIP Presolve eliminated 1 rows and 2 columns.
MIP Presolve modified 4 coefficients.
Reduced MIP has 108 rows, 130 columns, and 464 nonzeros.
Reduced MIP has 51 binaries, 79 generals, 0 SOSs, and 0 indicators.
Presolve time = 0,00 sec. (0,22 ticks)
Probing time = 0,00 sec. (0,09 ticks)
Tried aggregator 1 time.
Reduced MIP has 108 rows, 130 columns, and 464 nonzeros.
Reduced MIP has 51 binaries, 79 generals, 0 SOSs, and 0 indicators.
Presolve time = 0,00 sec. (0,29 ticks)
Represolve time = 0,01 sec. (3,02 ticks)
Probing time = 0,00 sec. (0,09 ticks)
Clique table members: 25.
MIP emphasis: balance optimality and feasibility.
MIP search method: dynamic search.
Parallel mode: deterministic, using up to 4 threads.
Root relaxation solution time = 0,00 sec. (1,58 ticks)

        Nodes                                         Cuts/
   Node  Left     Objective  IInf  Best Integer    Best Bound    ItCnt     Gap

*     0+    0                           44,2527       43,7075             1,23%
      0     0       43,7075    62       44,2527       43,7075      768    1,23%
*     0+    0                           44,1056       43,7075             0,90%
      0     0       43,7446    61       44,1056      Cuts: 23      798    0,78%
      0     0       43,7559    66       44,1056      Cuts: 20      823    0,78%
      0     0       43,8146    70       44,1056      Cuts: 23      852    0,66%
      0     0       43,8151    74       44,1056      Cuts: 29      875    0,66%
      0     0       43,8274    66       44,1056       Cuts: 8      884    0,63%
      0     0       43,8324    72       44,1056      Cuts: 25      907    0,62%
      0     0       43,8327    78       44,1056      Cuts: 18      915    0,62%
*     0+    0                           44,0324       43,8327             0,45%

Cover cuts applied:  2
Implied bound cuts applied:  12
Flow cuts applied:  19
Mixed integer rounding cuts applied:  6
Zero-half cuts applied:  5
Lift and project cuts applied:  4
Gomory fractional cuts applied:  4

Root node processing (before b&c):
  Real time             =    0,24 sec. (131,25 ticks)
Parallel b&c, 4 threads:
  Real time             =    0,00 sec. (0,00 ticks)
  Sync time (average)   =    0,00 sec.
  Wait time (average)   =    0,00 sec.
                          ------------
Total (root+branch&cut) =    0,24 sec. (131,25 ticks)

<<< solve


OBJECTIVE: 44.03243
12/18/2018 23:52:24 861
solving time ~= 249.398925781
Done
 [[0 17 0 0 0 0 0 0 0 0 0 0 0 0 0 0 0 0 0 0]
         [0 0 16 0 0 0 0 0 0 0 0 0 0 0 0 0 0 0 0 0]
         [0 0 0 0 0 15 0 0 0 0 0 0 0 0 0 0 0 0 0 0]
         [18 0 0 0 0 0 0 0 0 0 0 0 0 0 0 0 0 0 0 0]
         [0 0 0 19 0 0 0 0 0 0 0 0 0 0 0 0 0 0 0 0]
         [0 0 0 0 0 0 14 0 0 0 0 0 0 0 0 0 0 0 0 0]
         [0 0 0 0 0 0 0 0 0 13 0 0 0 0 0 0 0 0 0 0]
         [0 0 0 0 0 0 0 0 0 0 11 0 0 0 0 0 0 0 0 0]
         [0 0 0 0 20 0 0 0 0 0 0 0 0 0 0 0 0 0 0 0]
         [0 0 0 0 0 0 0 12 0 0 0 0 0 0 0 0 0 0 0 0]
         [0 0 0 0 0 0 0 0 0 0 0 10 0 0 0 0 0 0 0 0]
         [0 0 0 0 0 0 0 0 0 0 0 0 9 0 0 0 0 0 0 0]
         [0 0 0 0 0 0 0 0 0 0 0 0 0 0 0 0 0 0 0 8]
         [0 0 0 0 0 0 0 0 1 0 0 0 0 0 0 0 0 0 0 0]
         [0 0 0 0 0 0 0 0 0 0 0 0 0 0 0 0 0 0 4 0]
         [0 0 0 0 0 0 0 0 0 0 0 0 0 0 5 0 0 0 0 0]
         [0 0 0 0 0 0 0 0 0 0 0 0 0 2 0 0 0 0 0 0]
         [0 0 0 0 0 0 0 0 0 0 0 0 0 0 0 6 0 0 0 0]
         [0 0 0 0 0 0 0 0 0 0 0 0 0 0 0 0 3 0 0 0]
         [0 0 0 0 0 0 0 0 0 0 0 0 0 0 0 0 0 7 0 0]]

<<< post process


<<< done

